DIMACS_lns/graph-1000-42.col
p edge 1000 1803
e 2 630
e 2 98
e 2 778
e 5 722
e 5 463
e 5 393
e 5 544
e 5 173
e 7 360
e 7 268
e 7 545
e 7 312
e 7 657
e 7 619
e 8 57
e 8 123
e 8 547
e 8 809
e 8 385
e 9 868
e 9 713
e 9 468
e 10 306
e 10 224
e 10 653
e 10 497
e 10 899
e 10 646
e 12 587
e 12 272
e 12 56
e 12 567
e 13 123
e 13 125
e 13 322
e 15 191
e 15 70
e 15 914
e 17 332
e 17 549
e 17 766
e 17 911
e 17 268
e 17 500
e 17 128
e 20 196
e 20 814
e 20 414
e 20 914
e 20 653
e 21 568
e 21 540
e 21 327
e 23 741
e 23 61
e 23 421
e 26 495
e 26 110
e 26 934
e 27 135
e 27 117
e 27 506
e 27 92
e 27 100
e 27 739
e 28 425
e 28 976
e 28 869
e 30 185
e 30 885
e 30 406
e 30 178
e 32 988
e 32 996
e 32 976
e 32 510
e 32 815
e 32 179
e 32 722
e 32 248
e 32 647
e 33 294
e 33 829
e 33 96
e 34 184
e 34 461
e 34 187
e 34 256
e 34 368
e 38 469
e 38 857
e 38 557
e 38 565
e 39 540
e 39 936
e 39 898
e 39 93
e 39 547
e 39 90
e 39 742
e 40 294
e 40 141
e 40 406
e 40 899
e 41 895
e 41 945
e 41 562
e 41 896
e 41 158
e 41 699
e 41 665
e 41 525
e 42 221
e 42 439
e 42 225
e 44 745
e 44 298
e 44 240
e 45 745
e 45 421
e 45 811
e 45 96
e 45 499
e 45 250
e 45 715
e 46 577
e 46 308
e 46 880
e 47 226
e 47 84
e 47 411
e 47 434
e 47 577
e 47 844
e 47 718
e 48 102
e 48 251
e 48 977
e 48 65
e 48 903
e 49 125
e 49 887
e 49 996
e 50 52
e 50 894
e 50 396
e 50 609
e 50 754
e 51 691
e 51 526
e 51 99
e 51 244
e 52 806
e 52 100
e 52 173
e 52 468
e 52 520
e 53 992
e 53 275
e 53 612
e 54 130
e 54 905
e 54 257
e 54 924
e 55 406
e 55 355
e 55 887
e 55 104
e 55 687
e 56 846
e 56 566
e 56 76
e 56 872
e 57 829
e 57 624
e 57 369
e 58 361
e 58 488
e 58 239
e 60 573
e 60 576
e 60 251
e 60 858
e 60 650
e 61 537
e 61 744
e 62 706
e 62 958
e 62 972
e 62 985
e 63 491
e 63 282
e 63 567
e 64 981
e 64 242
e 64 849
e 64 582
e 64 851
e 64 860
e 65 114
e 65 775
e 68 152
e 68 318
e 68 642
e 69 327
e 69 90
e 69 688
e 70 481
e 70 370
e 70 710
e 71 850
e 71 916
e 71 839
e 71 605
e 75 465
e 75 593
e 75 193
e 75 383
e 75 803
e 75 869
e 75 298
e 76 455
e 76 520
e 76 589
e 76 731
e 76 387
e 76 463
e 77 688
e 77 868
e 77 701
e 77 967
e 77 833
e 77 561
e 77 524
e 77 770
e 77 192
e 78 182
e 78 649
e 78 745
e 79 523
e 79 661
e 79 307
e 79 370
e 80 883
e 80 159
e 80 940
e 80 136
e 80 586
e 81 406
e 81 435
e 81 732
e 81 945
e 81 383
e 81 513
e 81 318
e 81 405
e 81 241
e 83 921
e 83 385
e 83 869
e 83 500
e 84 279
e 84 597
e 84 384
e 84 539
e 84 485
e 84 862
e 85 745
e 85 512
e 85 275
e 85 579
e 85 381
e 85 971
e 87 611
e 87 732
e 87 318
e 87 743
e 87 605
e 87 661
e 88 852
e 88 685
e 88 791
e 88 985
e 88 313
e 89 411
e 89 947
e 89 567
e 89 622
e 90 450
e 90 287
e 92 662
e 92 228
e 93 630
e 93 123
e 93 799
e 93 523
e 94 448
e 94 110
e 94 721
e 94 729
e 94 846
e 94 844
e 96 540
e 96 515
e 96 612
e 96 788
e 96 749
e 96 671
e 96 347
e 96 751
e 98 321
e 98 917
e 98 139
e 98 518
e 98 119
e 98 634
e 99 941
e 99 172
e 100 999
e 100 488
e 100 684
e 100 483
e 102 813
e 102 860
e 103 698
e 103 164
e 103 241
e 104 808
e 104 385
e 104 805
e 104 678
e 104 741
e 105 754
e 105 106
e 105 824
e 105 631
e 106 150
e 106 462
e 106 729
e 106 329
e 106 916
e 106 133
e 106 332
e 107 592
e 107 791
e 107 211
e 107 580
e 107 164
e 107 397
e 107 856
e 109 250
e 109 576
e 109 160
e 109 515
e 110 951
e 110 184
e 110 139
e 111 503
e 111 442
e 111 678
e 111 347
e 114 291
e 114 434
e 114 867
e 114 929
e 116 339
e 116 784
e 116 587
e 116 396
e 116 430
e 116 171
e 116 909
e 117 539
e 117 525
e 117 955
e 117 357
e 117 411
e 117 396
e 118 719
e 118 781
e 118 297
e 118 685
e 118 186
e 119 852
e 119 445
e 119 741
e 119 865
e 119 728
e 121 576
e 121 760
e 121 887
e 121 908
e 121 290
e 121 533
e 122 684
e 122 510
e 122 677
e 122 676
e 123 382
e 123 513
e 125 295
e 126 687
e 126 139
e 126 478
e 127 604
e 127 698
e 127 791
e 127 145
e 128 872
e 128 852
e 130 282
e 130 672
e 131 687
e 131 746
e 131 588
e 132 900
e 132 759
e 132 835
e 133 390
e 133 610
e 133 565
e 133 444
e 134 779
e 134 203
e 134 826
e 134 495
e 134 271
e 134 924
e 135 633
e 135 745
e 136 465
e 136 256
e 136 932
e 136 325
e 136 934
e 136 713
e 136 689
e 137 981
e 137 553
e 137 657
e 137 653
e 138 904
e 138 543
e 138 689
e 138 308
e 138 351
e 138 517
e 138 369
e 138 645
e 139 831
e 139 788
e 139 800
e 140 308
e 140 200
e 140 208
e 140 331
e 140 226
e 141 786
e 141 232
e 141 150
e 141 588
e 141 423
e 141 392
e 141 725
e 141 429
e 142 894
e 142 723
e 142 611
e 142 754
e 143 852
e 143 276
e 143 649
e 143 804
e 144 336
e 144 516
e 144 192
e 144 771
e 144 811
e 144 698
e 144 847
e 144 457
e 145 254
e 145 524
e 145 340
e 146 357
e 146 592
e 146 996
e 146 793
e 146 165
e 147 870
e 147 677
e 147 324
e 148 321
e 148 826
e 148 602
e 148 634
e 148 650
e 149 880
e 149 391
e 149 483
e 150 760
e 150 257
e 150 754
e 152 808
e 152 390
e 152 336
e 152 581
e 153 419
e 153 973
e 153 860
e 153 794
e 154 342
e 154 562
e 154 169
e 154 425
e 154 530
e 154 217
e 157 704
e 157 531
e 157 490
e 157 631
e 157 580
e 158 167
e 158 620
e 158 390
e 158 650
e 158 503
e 158 703
e 159 673
e 159 283
e 159 960
e 159 437
e 160 162
e 160 828
e 161 445
e 161 518
e 161 547
e 162 379
e 162 872
e 162 451
e 162 452
e 162 377
e 162 827
e 162 192
e 164 696
e 164 782
e 164 416
e 164 566
e 164 426
e 165 782
e 165 750
e 165 303
e 165 805
e 165 599
e 165 607
e 165 399
e 166 990
e 166 331
e 166 605
e 167 327
e 167 749
e 167 578
e 167 231
e 167 875
e 169 312
e 169 670
e 169 193
e 169 919
e 170 925
e 170 631
e 170 665
e 170 701
e 170 236
e 171 437
e 171 569
e 171 381
e 171 581
e 171 906
e 172 501
e 172 328
e 172 972
e 172 271
e 173 798
e 173 800
e 173 552
e 173 591
e 174 361
e 174 390
e 174 517
e 175 492
e 175 212
e 175 866
e 178 617
e 178 471
e 178 866
e 178 460
e 178 663
e 178 749
e 179 272
e 179 654
e 179 529
e 179 325
e 179 833
e 179 386
e 180 659
e 180 944
e 180 626
e 182 322
e 182 941
e 182 747
e 182 984
e 182 321
e 182 933
e 184 380
e 185 974
e 185 843
e 185 798
e 185 945
e 186 891
e 186 852
e 186 301
e 187 647
e 187 602
e 189 773
e 189 939
e 189 645
e 189 980
e 189 227
e 191 754
e 191 508
e 192 509
e 192 442
e 192 550
e 192 379
e 193 330
e 193 857
e 193 453
e 193 201
e 195 321
e 195 998
e 195 352
e 196 663
e 196 850
e 198 776
e 198 828
e 198 897
e 198 668
e 200 576
e 200 911
e 201 338
e 201 469
e 203 263
e 203 905
e 203 925
e 203 744
e 205 837
e 205 908
e 205 503
e 205 578
e 205 749
e 205 797
e 207 301
e 207 848
e 207 629
e 207 843
e 208 518
e 208 706
e 208 536
e 209 476
e 209 380
e 209 303
e 209 424
e 211 735
e 211 220
e 211 531
e 211 340
e 211 551
e 211 671
e 212 247
e 212 825
e 212 694
e 212 576
e 212 685
e 213 601
e 213 532
e 213 722
e 213 985
e 213 705
e 215 449
e 215 256
e 215 281
e 217 960
e 217 923
e 217 936
e 217 752
e 217 423
e 218 658
e 218 520
e 218 929
e 220 457
e 220 521
e 221 441
e 221 544
e 221 856
e 221 247
e 223 553
e 223 491
e 223 648
e 224 781
e 224 764
e 224 259
e 224 301
e 225 227
e 225 612
e 225 617
e 226 780
e 227 516
e 227 342
e 227 534
e 227 457
e 227 655
e 227 878
e 227 358
e 227 805
e 228 523
e 228 800
e 228 703
e 228 380
e 229 564
e 229 913
e 229 930
e 230 521
e 230 430
e 230 234
e 230 579
e 231 355
e 231 965
e 231 308
e 231 282
e 231 663
e 231 850
e 232 827
e 232 608
e 232 858
e 234 424
e 234 739
e 234 503
e 234 759
e 234 890
e 234 842
e 236 254
e 236 425
e 236 388
e 236 766
e 238 548
e 238 859
e 238 944
e 239 891
e 239 998
e 239 932
e 240 547
e 240 450
e 240 297
e 240 279
e 241 339
e 242 396
e 242 393
e 242 903
e 243 810
e 243 329
e 243 299
e 244 603
e 244 737
e 244 543
e 244 356
e 244 305
e 244 524
e 245 317
e 245 430
e 245 313
e 245 867
e 245 679
e 246 601
e 246 938
e 246 507
e 247 362
e 247 751
e 247 870
e 247 784
e 247 339
e 247 927
e 248 589
e 248 311
e 250 342
e 251 825
e 251 759
e 254 725
e 254 770
e 254 780
e 255 959
e 255 788
e 255 567
e 255 745
e 256 984
e 256 564
e 256 646
e 257 370
e 259 835
e 259 623
e 259 561
e 263 766
e 263 927
e 266 739
e 266 940
e 266 303
e 268 670
e 268 975
e 268 672
e 268 671
e 270 357
e 270 451
e 270 852
e 270 593
e 271 745
e 271 710
e 271 421
e 271 476
e 271 379
e 272 873
e 272 677
e 274 711
e 274 821
e 274 977
e 274 587
e 274 769
e 275 900
e 276 648
e 276 578
e 276 943
e 276 747
e 276 668
e 278 552
e 278 487
e 278 846
e 279 468
e 280 425
e 280 461
e 280 650
e 281 739
e 281 898
e 281 378
e 281 850
e 282 446
e 282 549
e 282 287
e 282 659
e 283 533
e 283 413
e 283 697
e 287 564
e 287 729
e 288 386
e 288 612
e 288 864
e 288 880
e 289 797
e 289 507
e 289 677
e 289 784
e 290 940
e 290 795
e 290 887
e 290 306
e 290 742
e 291 396
e 291 867
e 291 613
e 292 626
e 292 344
e 292 798
e 294 852
e 294 700
e 295 329
e 295 710
e 296 790
e 296 502
e 296 551
e 297 949
e 297 806
e 298 873
e 298 704
e 299 440
e 299 817
e 299 578
e 299 820
e 301 559
e 303 865
e 303 677
e 303 810
e 303 964
e 303 634
e 303 402
e 303 984
e 305 416
e 305 997
e 305 820
e 305 896
e 306 424
e 306 972
e 307 608
e 307 487
e 307 432
e 307 903
e 307 694
e 307 488
e 307 864
e 308 913
e 308 386
e 309 534
e 309 897
e 309 503
e 310 495
e 310 898
e 310 478
e 311 816
e 311 641
e 311 980
e 311 319
e 312 653
e 313 730
e 313 794
e 316 684
e 316 816
e 316 827
e 316 368
e 316 475
e 317 781
e 317 408
e 318 991
e 319 336
e 319 727
e 320 361
e 320 739
e 320 352
e 320 353
e 321 438
e 321 590
e 321 424
e 321 612
e 321 377
e 321 694
e 322 408
e 322 452
e 322 882
e 324 643
e 324 828
e 324 419
e 325 658
e 325 501
e 326 607
e 326 617
e 326 725
e 327 752
e 327 592
e 327 992
e 328 684
e 328 677
e 329 618
e 329 846
e 329 504
e 330 623
e 330 566
e 330 849
e 330 398
e 330 776
e 330 517
e 331 849
e 331 951
e 332 721
e 332 890
e 333 990
e 333 575
e 333 885
e 336 875
e 336 500
e 337 793
e 337 833
e 337 367
e 338 576
e 338 451
e 339 424
e 339 663
e 339 975
e 339 831
e 340 672
e 340 378
e 340 580
e 340 394
e 340 989
e 340 829
e 340 940
e 340 708
e 340 381
e 340 370
e 340 735
e 341 775
e 341 929
e 341 647
e 342 731
e 344 811
e 344 974
e 344 458
e 347 794
e 347 895
e 347 821
e 348 848
e 348 764
e 348 998
e 348 814
e 351 560
e 351 420
e 352 858
e 352 870
e 352 808
e 352 987
e 353 530
e 353 718
e 353 965
e 353 935
e 353 899
e 353 793
e 354 441
e 354 882
e 354 839
e 354 944
e 354 889
e 355 947
e 355 494
e 355 457
e 356 727
e 356 976
e 358 795
e 358 492
e 360 745
e 360 458
e 360 546
e 360 987
e 361 560
e 361 718
e 361 780
e 362 630
e 362 598
e 367 715
e 367 549
e 367 543
e 367 564
e 367 951
e 368 975
e 368 731
e 368 715
e 368 688
e 368 769
e 368 627
e 368 457
e 369 710
e 369 719
e 369 821
e 370 568
e 370 957
e 370 941
e 370 811
e 371 797
e 371 376
e 371 813
e 371 721
e 371 617
e 373 382
e 373 526
e 373 484
e 373 407
e 375 413
e 375 402
e 375 602
e 375 627
e 376 543
e 376 844
e 377 819
e 377 947
e 378 587
e 378 899
e 380 972
e 381 896
e 381 455
e 382 757
e 382 470
e 382 703
e 382 919
e 382 501
e 382 835
e 383 515
e 383 711
e 383 889
e 383 719
e 384 977
e 384 913
e 384 860
e 385 910
e 385 898
e 386 573
e 386 612
e 386 539
e 386 674
e 386 873
e 386 997
e 387 929
e 387 690
e 387 566
e 388 903
e 388 659
e 389 557
e 389 844
e 389 416
e 389 798
e 390 478
e 390 677
e 390 636
e 391 805
e 391 543
e 391 949
e 391 938
e 391 405
e 392 515
e 392 700
e 392 801
e 393 973
e 393 589
e 393 671
e 393 516
e 394 474
e 394 835
e 394 748
e 396 517
e 397 651
e 397 936
e 397 882
e 397 558
e 397 861
e 397 427
e 398 798
e 398 626
e 398 429
e 398 415
e 398 481
e 399 575
e 399 690
e 402 679
e 403 518
e 403 821
e 403 873
e 405 742
e 406 972
e 406 679
e 407 883
e 407 610
e 407 566
e 407 599
e 408 952
e 408 988
e 408 809
e 408 483
e 408 723
e 411 537
e 411 844
e 411 805
e 412 513
e 412 719
e 412 711
e 413 837
e 414 615
e 414 440
e 415 727
e 415 817
e 415 444
e 415 593
e 416 919
e 416 529
e 419 815
e 419 507
e 420 526
e 420 721
e 421 788
e 422 565
e 422 805
e 422 511
e 422 452
e 423 708
e 423 533
e 423 617
e 425 643
e 425 776
e 426 748
e 426 719
e 426 943
e 426 728
e 426 434
e 427 585
e 427 586
e 427 598
e 427 714
e 427 938
e 427 620
e 427 455
e 427 934
e 429 541
e 429 631
e 429 989
e 429 929
e 429 624
e 430 504
e 430 993
e 430 847
e 432 760
e 432 665
e 434 889
e 434 521
e 434 809
e 434 917
e 434 579
e 435 498
e 435 545
e 435 702
e 437 703
e 437 757
e 438 847
e 438 696
e 439 648
e 439 982
e 440 588
e 440 992
e 440 827
e 440 649
e 440 543
e 441 620
e 441 617
e 441 826
e 442 966
e 442 665
e 444 842
e 444 859
e 445 630
e 446 679
e 446 700
e 446 663
e 448 865
e 448 911
e 449 450
e 449 739
e 449 801
e 449 740
e 449 916
e 451 917
e 453 622
e 453 647
e 453 672
e 455 993
e 455 861
e 455 662
e 455 471
e 457 905
e 457 609
e 457 521
e 458 541
e 458 613
e 458 802
e 460 488
e 460 803
e 460 481
e 460 613
e 461 607
e 462 906
e 462 803
e 462 914
e 462 646
e 462 498
e 463 910
e 465 518
e 466 766
e 466 974
e 466 865
e 466 940
e 467 518
e 467 804
e 467 524
e 468 532
e 468 578
e 468 974
e 469 580
e 469 675
e 470 659
e 470 940
e 471 944
e 471 579
e 471 857
e 474 689
e 474 492
e 475 937
e 475 791
e 476 773
e 476 702
e 476 844
e 476 514
e 478 697
e 478 510
e 478 727
e 481 804
e 481 740
e 481 870
e 483 978
e 483 622
e 484 713
e 484 829
e 485 624
e 485 615
e 486 946
e 486 824
e 486 612
e 487 587
e 487 575
e 488 924
e 490 679
e 490 820
e 491 713
e 491 539
e 491 937
e 491 849
e 492 558
e 492 576
e 494 889
e 494 676
e 495 676
e 495 605
e 497 873
e 497 801
e 498 586
e 499 540
e 499 651
e 499 665
e 499 565
e 500 943
e 501 598
e 501 990
e 501 560
e 502 546
e 502 541
e 502 805
e 502 924
e 503 991
e 504 702
e 504 879
e 506 644
e 506 911
e 508 641
e 508 785
e 508 873
e 509 960
e 509 933
e 510 672
e 511 878
e 511 987
e 512 531
e 512 690
e 513 708
e 514 786
e 514 904
e 515 933
e 515 703
e 515 580
e 515 585
e 516 771
e 517 872
e 517 701
e 520 609
e 520 790
e 520 806
e 520 870
e 523 544
e 524 563
e 524 944
e 524 676
e 525 569
e 525 767
e 526 608
e 526 904
e 529 867
e 529 824
e 529 778
e 530 842
e 530 982
e 531 930
e 532 817
e 532 917
e 532 536
e 533 746
e 533 679
e 534 586
e 534 694
e 534 649
e 536 537
e 536 839
e 536 801
e 536 997
e 536 592
e 537 999
e 537 557
e 537 872
e 539 977
e 539 817
e 539 882
e 540 635
e 541 624
e 543 740
e 544 634
e 545 803
e 546 721
e 546 935
e 547 665
e 547 836
e 548 815
e 548 790
e 549 704
e 549 902
e 550 551
e 550 557
e 551 711
e 552 913
e 553 856
e 553 916
e 556 911
e 556 843
e 556 711
e 557 921
e 557 898
e 558 737
e 559 607
e 559 870
e 560 700
e 560 923
e 560 757
e 561 925
e 561 592
e 561 719
e 562 600
e 563 861
e 563 661
e 564 952
e 564 671
e 564 904
e 565 788
e 565 980
e 565 601
e 566 803
e 567 958
e 568 784
e 568 740
e 569 896
e 573 688
e 573 923
e 575 663
e 576 987
e 576 711
e 577 726
e 577 972
e 578 779
e 578 947
e 578 674
e 580 972
e 580 676
e 581 909
e 581 873
e 582 965
e 582 618
e 582 971
e 582 989
e 585 597
e 586 668
e 586 799
e 586 836
e 587 971
e 587 821
e 587 913
e 588 668
e 588 691
e 588 947
e 588 856
e 590 750
e 590 801
e 590 714
e 591 790
e 591 643
e 591 742
e 592 739
e 592 593
e 597 741
e 597 601
e 597 603
e 597 814
e 598 726
e 599 786
e 599 711
e 600 697
e 600 764
e 600 668
e 601 980
e 602 742
e 603 706
e 603 689
e 604 791
e 604 824
e 605 788
e 607 965
e 608 695
e 609 998
e 609 654
e 609 629
e 609 624
e 610 855
e 611 923
e 611 773
e 612 655
e 612 904
e 613 696
e 613 804
e 615 641
e 615 674
e 615 949
e 618 895
e 618 735
e 618 620
e 618 714
e 619 721
e 619 811
e 620 821
e 620 924
e 620 788
e 622 662
e 623 695
e 623 739
e 624 952
e 627 943
e 629 978
e 629 756
e 629 635
e 629 658
e 629 826
e 630 785
e 630 941
e 631 759
e 633 773
e 633 971
e 633 655
e 633 654
e 633 737
e 634 987
e 635 739
e 635 786
e 636 694
e 636 967
e 636 890
e 642 803
e 642 752
e 643 911
e 644 673
e 644 730
e 645 793
e 647 663
e 649 759
e 649 712
e 649 988
e 650 782
e 650 888
e 651 681
e 651 946
e 654 937
e 655 813
e 655 811
e 655 939
e 655 990
e 655 984
e 655 687
e 657 972
e 658 980
e 658 741
e 659 811
e 659 688
e 659 698
e 659 906
e 659 957
e 661 835
e 661 798
e 661 804
e 661 694
e 662 687
e 666 732
e 666 904
e 666 855
e 666 728
e 668 914
e 670 864
e 670 850
e 670 857
e 671 688
e 672 802
e 673 873
e 674 850
e 674 681
e 674 861
e 675 888
e 675 868
e 677 888
e 677 842
e 678 896
e 678 844
e 678 746
e 681 846
e 681 926
e 688 819
e 691 715
e 694 820
e 695 970
e 695 794
e 696 835
e 696 751
e 698 947
e 698 842
e 698 739
e 698 889
e 699 916
e 699 786
e 700 988
e 701 848
e 701 902
e 701 714
e 702 935
e 702 967
e 702 713
e 703 712
e 703 742
e 704 777
e 704 910
e 705 894
e 705 824
e 706 752
e 708 964
e 710 852
e 710 938
e 711 939
e 711 899
e 712 971
e 712 959
e 717 744
e 717 908
e 717 973
e 718 806
e 721 829
e 721 992
e 722 847
e 722 940
e 722 965
e 723 778
e 725 879
e 725 992
e 726 966
e 727 729
e 727 958
e 729 803
e 729 976
e 730 932
e 730 999
e 731 921
e 731 744
e 735 842
e 735 837
e 737 779
e 739 887
e 739 938
e 741 757
e 743 921
e 743 897
e 745 933
e 745 859
e 747 908
e 747 888
e 748 977
e 750 972
e 751 815
e 751 868
e 751 878
e 752 908
e 754 869
e 756 831
e 756 870
e 756 826
e 757 970
e 757 905
e 760 794
e 760 926
e 760 930
e 764 998
e 767 771
e 767 960
e 767 851
e 769 964
e 770 955
e 771 991
e 771 974
e 773 885
e 775 988
e 775 995
e 776 973
e 777 988
e 777 872
e 779 816
e 780 860
e 780 858
e 782 842
e 785 971
e 785 898
e 788 809
e 790 872
e 791 889
e 793 993
e 793 890
e 793 833
e 793 866
e 793 955
e 794 862
e 795 967
e 795 996
e 795 832
e 798 851
e 798 831
e 799 849
e 800 883
e 800 895
e 802 843
e 804 816
e 805 837
e 808 809
e 808 885
e 810 992
e 811 940
e 813 978
e 814 902
e 815 957
e 815 869
e 815 989
e 816 817
e 817 908
e 819 867
e 824 883
e 825 966
e 825 878
e 827 937
e 829 989
e 829 944
e 832 917
e 832 941
e 836 939
e 836 844
e 839 982
e 850 940
e 850 868
e 851 921
e 855 870
e 856 926
e 856 878
e 857 927
e 862 916
e 864 990
e 865 966
e 866 991
e 866 919
e 875 925
e 879 998
e 879 952
e 885 995
e 888 959
e 891 934
e 891 940
e 900 902
e 905 959
e 909 937
e 911 952
e 914 997
e 917 946
e 929 988
e 929 964
e 929 971
e 933 970
e 964 971
e 973 981
e 980 995
e 982 999
