txt_Ins/graph-1000-42.txt
n 1000
e 1 629
e 1 97
e 1 777
e 4 721
e 4 462
e 4 392
e 4 543
e 4 172
e 6 359
e 6 267
e 6 544
e 6 311
e 6 656
e 6 618
e 7 56
e 7 122
e 7 546
e 7 808
e 7 384
e 8 867
e 8 712
e 8 467
e 9 305
e 9 223
e 9 652
e 9 496
e 9 898
e 9 645
e 11 586
e 11 271
e 11 55
e 11 566
e 12 122
e 12 124
e 12 321
e 14 190
e 14 69
e 14 913
e 16 331
e 16 548
e 16 765
e 16 910
e 16 267
e 16 499
e 16 127
e 19 195
e 19 813
e 19 413
e 19 913
e 19 652
e 20 567
e 20 539
e 20 326
e 22 740
e 22 60
e 22 420
e 25 494
e 25 109
e 25 933
e 26 134
e 26 116
e 26 505
e 26 91
e 26 99
e 26 738
e 27 424
e 27 975
e 27 868
e 29 184
e 29 884
e 29 405
e 29 177
e 31 987
e 31 995
e 31 975
e 31 509
e 31 814
e 31 178
e 31 721
e 31 247
e 31 646
e 32 293
e 32 828
e 32 95
e 33 183
e 33 460
e 33 186
e 33 255
e 33 367
e 37 468
e 37 856
e 37 556
e 37 564
e 38 539
e 38 935
e 38 897
e 38 92
e 38 546
e 38 89
e 38 741
e 39 293
e 39 140
e 39 405
e 39 898
e 40 894
e 40 944
e 40 561
e 40 895
e 40 157
e 40 698
e 40 664
e 40 524
e 41 220
e 41 438
e 41 224
e 43 744
e 43 297
e 43 239
e 44 744
e 44 420
e 44 810
e 44 95
e 44 498
e 44 249
e 44 714
e 45 576
e 45 307
e 45 879
e 46 225
e 46 83
e 46 410
e 46 433
e 46 576
e 46 843
e 46 717
e 47 101
e 47 250
e 47 976
e 47 64
e 47 902
e 48 124
e 48 886
e 48 995
e 49 51
e 49 893
e 49 395
e 49 608
e 49 753
e 50 690
e 50 525
e 50 98
e 50 243
e 51 805
e 51 99
e 51 172
e 51 467
e 51 519
e 52 991
e 52 274
e 52 611
e 53 129
e 53 904
e 53 256
e 53 923
e 54 405
e 54 354
e 54 886
e 54 103
e 54 686
e 55 845
e 55 565
e 55 75
e 55 871
e 56 828
e 56 623
e 56 368
e 57 360
e 57 487
e 57 238
e 59 572
e 59 575
e 59 250
e 59 857
e 59 649
e 60 536
e 60 743
e 61 705
e 61 957
e 61 971
e 61 984
e 62 490
e 62 281
e 62 566
e 63 980
e 63 241
e 63 848
e 63 581
e 63 850
e 63 859
e 64 113
e 64 774
e 67 151
e 67 317
e 67 641
e 68 326
e 68 89
e 68 687
e 69 480
e 69 369
e 69 709
e 70 849
e 70 915
e 70 838
e 70 604
e 74 464
e 74 592
e 74 192
e 74 382
e 74 802
e 74 868
e 74 297
e 75 454
e 75 519
e 75 588
e 75 730
e 75 386
e 75 462
e 76 687
e 76 867
e 76 700
e 76 966
e 76 832
e 76 560
e 76 523
e 76 769
e 76 191
e 77 181
e 77 648
e 77 744
e 78 522
e 78 660
e 78 306
e 78 369
e 79 882
e 79 158
e 79 939
e 79 135
e 79 585
e 80 405
e 80 434
e 80 731
e 80 944
e 80 382
e 80 512
e 80 317
e 80 404
e 80 240
e 82 920
e 82 384
e 82 868
e 82 499
e 83 278
e 83 596
e 83 383
e 83 538
e 83 484
e 83 861
e 84 744
e 84 511
e 84 274
e 84 578
e 84 380
e 84 970
e 86 610
e 86 731
e 86 317
e 86 742
e 86 604
e 86 660
e 87 851
e 87 684
e 87 790
e 87 984
e 87 312
e 88 410
e 88 946
e 88 566
e 88 621
e 89 449
e 89 286
e 91 661
e 91 227
e 92 629
e 92 122
e 92 798
e 92 522
e 93 447
e 93 109
e 93 720
e 93 728
e 93 845
e 93 843
e 95 539
e 95 514
e 95 611
e 95 787
e 95 748
e 95 670
e 95 346
e 95 750
e 97 320
e 97 916
e 97 138
e 97 517
e 97 118
e 97 633
e 98 940
e 98 171
e 99 998
e 99 487
e 99 683
e 99 482
e 101 812
e 101 859
e 102 697
e 102 163
e 102 240
e 103 807
e 103 384
e 103 804
e 103 677
e 103 740
e 104 753
e 104 105
e 104 823
e 104 630
e 105 149
e 105 461
e 105 728
e 105 328
e 105 915
e 105 132
e 105 331
e 106 591
e 106 790
e 106 210
e 106 579
e 106 163
e 106 396
e 106 855
e 108 249
e 108 575
e 108 159
e 108 514
e 109 950
e 109 183
e 109 138
e 110 502
e 110 441
e 110 677
e 110 346
e 113 290
e 113 433
e 113 866
e 113 928
e 115 338
e 115 783
e 115 586
e 115 395
e 115 429
e 115 170
e 115 908
e 116 538
e 116 524
e 116 954
e 116 356
e 116 410
e 116 395
e 117 718
e 117 780
e 117 296
e 117 684
e 117 185
e 118 851
e 118 444
e 118 740
e 118 864
e 118 727
e 120 575
e 120 759
e 120 886
e 120 907
e 120 289
e 120 532
e 121 683
e 121 509
e 121 676
e 121 675
e 122 381
e 122 512
e 124 294
e 125 686
e 125 138
e 125 477
e 126 603
e 126 697
e 126 790
e 126 144
e 127 871
e 127 851
e 129 281
e 129 671
e 130 686
e 130 745
e 130 587
e 131 899
e 131 758
e 131 834
e 132 389
e 132 609
e 132 564
e 132 443
e 133 778
e 133 202
e 133 825
e 133 494
e 133 270
e 133 923
e 134 632
e 134 744
e 135 464
e 135 255
e 135 931
e 135 324
e 135 933
e 135 712
e 135 688
e 136 980
e 136 552
e 136 656
e 136 652
e 137 903
e 137 542
e 137 688
e 137 307
e 137 350
e 137 516
e 137 368
e 137 644
e 138 830
e 138 787
e 138 799
e 139 307
e 139 199
e 139 207
e 139 330
e 139 225
e 140 785
e 140 231
e 140 149
e 140 587
e 140 422
e 140 391
e 140 724
e 140 428
e 141 893
e 141 722
e 141 610
e 141 753
e 142 851
e 142 275
e 142 648
e 142 803
e 143 335
e 143 515
e 143 191
e 143 770
e 143 810
e 143 697
e 143 846
e 143 456
e 144 253
e 144 523
e 144 339
e 145 356
e 145 591
e 145 995
e 145 792
e 145 164
e 146 869
e 146 676
e 146 323
e 147 320
e 147 825
e 147 601
e 147 633
e 147 649
e 148 879
e 148 390
e 148 482
e 149 759
e 149 256
e 149 753
e 151 807
e 151 389
e 151 335
e 151 580
e 152 418
e 152 972
e 152 859
e 152 793
e 153 341
e 153 561
e 153 168
e 153 424
e 153 529
e 153 216
e 156 703
e 156 530
e 156 489
e 156 630
e 156 579
e 157 166
e 157 619
e 157 389
e 157 649
e 157 502
e 157 702
e 158 672
e 158 282
e 158 959
e 158 436
e 159 161
e 159 827
e 160 444
e 160 517
e 160 546
e 161 378
e 161 871
e 161 450
e 161 451
e 161 376
e 161 826
e 161 191
e 163 695
e 163 781
e 163 415
e 163 565
e 163 425
e 164 781
e 164 749
e 164 302
e 164 804
e 164 598
e 164 606
e 164 398
e 165 989
e 165 330
e 165 604
e 166 326
e 166 748
e 166 577
e 166 230
e 166 874
e 168 311
e 168 669
e 168 192
e 168 918
e 169 924
e 169 630
e 169 664
e 169 700
e 169 235
e 170 436
e 170 568
e 170 380
e 170 580
e 170 905
e 171 500
e 171 327
e 171 971
e 171 270
e 172 797
e 172 799
e 172 551
e 172 590
e 173 360
e 173 389
e 173 516
e 174 491
e 174 211
e 174 865
e 177 616
e 177 470
e 177 865
e 177 459
e 177 662
e 177 748
e 178 271
e 178 653
e 178 528
e 178 324
e 178 832
e 178 385
e 179 658
e 179 943
e 179 625
e 181 321
e 181 940
e 181 746
e 181 983
e 181 320
e 181 932
e 183 379
e 184 973
e 184 842
e 184 797
e 184 944
e 185 890
e 185 851
e 185 300
e 186 646
e 186 601
e 188 772
e 188 938
e 188 644
e 188 979
e 188 226
e 190 753
e 190 507
e 191 508
e 191 441
e 191 549
e 191 378
e 192 329
e 192 856
e 192 452
e 192 200
e 194 320
e 194 997
e 194 351
e 195 662
e 195 849
e 197 775
e 197 827
e 197 896
e 197 667
e 199 575
e 199 910
e 200 337
e 200 468
e 202 262
e 202 904
e 202 924
e 202 743
e 204 836
e 204 907
e 204 502
e 204 577
e 204 748
e 204 796
e 206 300
e 206 847
e 206 628
e 206 842
e 207 517
e 207 705
e 207 535
e 208 475
e 208 379
e 208 302
e 208 423
e 210 734
e 210 219
e 210 530
e 210 339
e 210 550
e 210 670
e 211 246
e 211 824
e 211 693
e 211 575
e 211 684
e 212 600
e 212 531
e 212 721
e 212 984
e 212 704
e 214 448
e 214 255
e 214 280
e 216 959
e 216 922
e 216 935
e 216 751
e 216 422
e 217 657
e 217 519
e 217 928
e 219 456
e 219 520
e 220 440
e 220 543
e 220 855
e 220 246
e 222 552
e 222 490
e 222 647
e 223 780
e 223 763
e 223 258
e 223 300
e 224 226
e 224 611
e 224 616
e 225 779
e 226 515
e 226 341
e 226 533
e 226 456
e 226 654
e 226 877
e 226 357
e 226 804
e 227 522
e 227 799
e 227 702
e 227 379
e 228 563
e 228 912
e 228 929
e 229 520
e 229 429
e 229 233
e 229 578
e 230 354
e 230 964
e 230 307
e 230 281
e 230 662
e 230 849
e 231 826
e 231 607
e 231 857
e 233 423
e 233 738
e 233 502
e 233 758
e 233 889
e 233 841
e 235 253
e 235 424
e 235 387
e 235 765
e 237 547
e 237 858
e 237 943
e 238 890
e 238 997
e 238 931
e 239 546
e 239 449
e 239 296
e 239 278
e 240 338
e 241 395
e 241 392
e 241 902
e 242 809
e 242 328
e 242 298
e 243 602
e 243 736
e 243 542
e 243 355
e 243 304
e 243 523
e 244 316
e 244 429
e 244 312
e 244 866
e 244 678
e 245 600
e 245 937
e 245 506
e 246 361
e 246 750
e 246 869
e 246 783
e 246 338
e 246 926
e 247 588
e 247 310
e 249 341
e 250 824
e 250 758
e 253 724
e 253 769
e 253 779
e 254 958
e 254 787
e 254 566
e 254 744
e 255 983
e 255 563
e 255 645
e 256 369
e 258 834
e 258 622
e 258 560
e 262 765
e 262 926
e 265 738
e 265 939
e 265 302
e 267 669
e 267 974
e 267 671
e 267 670
e 269 356
e 269 450
e 269 851
e 269 592
e 270 744
e 270 709
e 270 420
e 270 475
e 270 378
e 271 872
e 271 676
e 273 710
e 273 820
e 273 976
e 273 586
e 273 768
e 274 899
e 275 647
e 275 577
e 275 942
e 275 746
e 275 667
e 277 551
e 277 486
e 277 845
e 278 467
e 279 424
e 279 460
e 279 649
e 280 738
e 280 897
e 280 377
e 280 849
e 281 445
e 281 548
e 281 286
e 281 658
e 282 532
e 282 412
e 282 696
e 286 563
e 286 728
e 287 385
e 287 611
e 287 863
e 287 879
e 288 796
e 288 506
e 288 676
e 288 783
e 289 939
e 289 794
e 289 886
e 289 305
e 289 741
e 290 395
e 290 866
e 290 612
e 291 625
e 291 343
e 291 797
e 293 851
e 293 699
e 294 328
e 294 709
e 295 789
e 295 501
e 295 550
e 296 948
e 296 805
e 297 872
e 297 703
e 298 439
e 298 816
e 298 577
e 298 819
e 300 558
e 302 864
e 302 676
e 302 809
e 302 963
e 302 633
e 302 401
e 302 983
e 304 415
e 304 996
e 304 819
e 304 895
e 305 423
e 305 971
e 306 607
e 306 486
e 306 431
e 306 902
e 306 693
e 306 487
e 306 863
e 307 912
e 307 385
e 308 533
e 308 896
e 308 502
e 309 494
e 309 897
e 309 477
e 310 815
e 310 640
e 310 979
e 310 318
e 311 652
e 312 729
e 312 793
e 315 683
e 315 815
e 315 826
e 315 367
e 315 474
e 316 780
e 316 407
e 317 990
e 318 335
e 318 726
e 319 360
e 319 738
e 319 351
e 319 352
e 320 437
e 320 589
e 320 423
e 320 611
e 320 376
e 320 693
e 321 407
e 321 451
e 321 881
e 323 642
e 323 827
e 323 418
e 324 657
e 324 500
e 325 606
e 325 616
e 325 724
e 326 751
e 326 591
e 326 991
e 327 683
e 327 676
e 328 617
e 328 845
e 328 503
e 329 622
e 329 565
e 329 848
e 329 397
e 329 775
e 329 516
e 330 848
e 330 950
e 331 720
e 331 889
e 332 989
e 332 574
e 332 884
e 335 874
e 335 499
e 336 792
e 336 832
e 336 366
e 337 575
e 337 450
e 338 423
e 338 662
e 338 974
e 338 830
e 339 671
e 339 377
e 339 579
e 339 393
e 339 988
e 339 828
e 339 939
e 339 707
e 339 380
e 339 369
e 339 734
e 340 774
e 340 928
e 340 646
e 341 730
e 343 810
e 343 973
e 343 457
e 346 793
e 346 894
e 346 820
e 347 847
e 347 763
e 347 997
e 347 813
e 350 559
e 350 419
e 351 857
e 351 869
e 351 807
e 351 986
e 352 529
e 352 717
e 352 964
e 352 934
e 352 898
e 352 792
e 353 440
e 353 881
e 353 838
e 353 943
e 353 888
e 354 946
e 354 493
e 354 456
e 355 726
e 355 975
e 357 794
e 357 491
e 359 744
e 359 457
e 359 545
e 359 986
e 360 559
e 360 717
e 360 779
e 361 629
e 361 597
e 366 714
e 366 548
e 366 542
e 366 563
e 366 950
e 367 974
e 367 730
e 367 714
e 367 687
e 367 768
e 367 626
e 367 456
e 368 709
e 368 718
e 368 820
e 369 567
e 369 956
e 369 940
e 369 810
e 370 796
e 370 375
e 370 812
e 370 720
e 370 616
e 372 381
e 372 525
e 372 483
e 372 406
e 374 412
e 374 401
e 374 601
e 374 626
e 375 542
e 375 843
e 376 818
e 376 946
e 377 586
e 377 898
e 379 971
e 380 895
e 380 454
e 381 756
e 381 469
e 381 702
e 381 918
e 381 500
e 381 834
e 382 514
e 382 710
e 382 888
e 382 718
e 383 976
e 383 912
e 383 859
e 384 909
e 384 897
e 385 572
e 385 611
e 385 538
e 385 673
e 385 872
e 385 996
e 386 928
e 386 689
e 386 565
e 387 902
e 387 658
e 388 556
e 388 843
e 388 415
e 388 797
e 389 477
e 389 676
e 389 635
e 390 804
e 390 542
e 390 948
e 390 937
e 390 404
e 391 514
e 391 699
e 391 800
e 392 972
e 392 588
e 392 670
e 392 515
e 393 473
e 393 834
e 393 747
e 395 516
e 396 650
e 396 935
e 396 881
e 396 557
e 396 860
e 396 426
e 397 797
e 397 625
e 397 428
e 397 414
e 397 480
e 398 574
e 398 689
e 401 678
e 402 517
e 402 820
e 402 872
e 404 741
e 405 971
e 405 678
e 406 882
e 406 609
e 406 565
e 406 598
e 407 951
e 407 987
e 407 808
e 407 482
e 407 722
e 410 536
e 410 843
e 410 804
e 411 512
e 411 718
e 411 710
e 412 836
e 413 614
e 413 439
e 414 726
e 414 816
e 414 443
e 414 592
e 415 918
e 415 528
e 418 814
e 418 506
e 419 525
e 419 720
e 420 787
e 421 564
e 421 804
e 421 510
e 421 451
e 422 707
e 422 532
e 422 616
e 424 642
e 424 775
e 425 747
e 425 718
e 425 942
e 425 727
e 425 433
e 426 584
e 426 585
e 426 597
e 426 713
e 426 937
e 426 619
e 426 454
e 426 933
e 428 540
e 428 630
e 428 988
e 428 928
e 428 623
e 429 503
e 429 992
e 429 846
e 431 759
e 431 664
e 433 888
e 433 520
e 433 808
e 433 916
e 433 578
e 434 497
e 434 544
e 434 701
e 436 702
e 436 756
e 437 846
e 437 695
e 438 647
e 438 981
e 439 587
e 439 991
e 439 826
e 439 648
e 439 542
e 440 619
e 440 616
e 440 825
e 441 965
e 441 664
e 443 841
e 443 858
e 444 629
e 445 678
e 445 699
e 445 662
e 447 864
e 447 910
e 448 449
e 448 738
e 448 800
e 448 739
e 448 915
e 450 916
e 452 621
e 452 646
e 452 671
e 454 992
e 454 860
e 454 661
e 454 470
e 456 904
e 456 608
e 456 520
e 457 540
e 457 612
e 457 801
e 459 487
e 459 802
e 459 480
e 459 612
e 460 606
e 461 905
e 461 802
e 461 913
e 461 645
e 461 497
e 462 909
e 464 517
e 465 765
e 465 973
e 465 864
e 465 939
e 466 517
e 466 803
e 466 523
e 467 531
e 467 577
e 467 973
e 468 579
e 468 674
e 469 658
e 469 939
e 470 943
e 470 578
e 470 856
e 473 688
e 473 491
e 474 936
e 474 790
e 475 772
e 475 701
e 475 843
e 475 513
e 477 696
e 477 509
e 477 726
e 480 803
e 480 739
e 480 869
e 482 977
e 482 621
e 483 712
e 483 828
e 484 623
e 484 614
e 485 945
e 485 823
e 485 611
e 486 586
e 486 574
e 487 923
e 489 678
e 489 819
e 490 712
e 490 538
e 490 936
e 490 848
e 491 557
e 491 575
e 493 888
e 493 675
e 494 675
e 494 604
e 496 872
e 496 800
e 497 585
e 498 539
e 498 650
e 498 664
e 498 564
e 499 942
e 500 597
e 500 989
e 500 559
e 501 545
e 501 540
e 501 804
e 501 923
e 502 990
e 503 701
e 503 878
e 505 643
e 505 910
e 507 640
e 507 784
e 507 872
e 508 959
e 508 932
e 509 671
e 510 877
e 510 986
e 511 530
e 511 689
e 512 707
e 513 785
e 513 903
e 514 932
e 514 702
e 514 579
e 514 584
e 515 770
e 516 871
e 516 700
e 519 608
e 519 789
e 519 805
e 519 869
e 522 543
e 523 562
e 523 943
e 523 675
e 524 568
e 524 766
e 525 607
e 525 903
e 528 866
e 528 823
e 528 777
e 529 841
e 529 981
e 530 929
e 531 816
e 531 916
e 531 535
e 532 745
e 532 678
e 533 585
e 533 693
e 533 648
e 535 536
e 535 838
e 535 800
e 535 996
e 535 591
e 536 998
e 536 556
e 536 871
e 538 976
e 538 816
e 538 881
e 539 634
e 540 623
e 542 739
e 543 633
e 544 802
e 545 720
e 545 934
e 546 664
e 546 835
e 547 814
e 547 789
e 548 703
e 548 901
e 549 550
e 549 556
e 550 710
e 551 912
e 552 855
e 552 915
e 555 910
e 555 842
e 555 710
e 556 920
e 556 897
e 557 736
e 558 606
e 558 869
e 559 699
e 559 922
e 559 756
e 560 924
e 560 591
e 560 718
e 561 599
e 562 860
e 562 660
e 563 951
e 563 670
e 563 903
e 564 787
e 564 979
e 564 600
e 565 802
e 566 957
e 567 783
e 567 739
e 568 895
e 572 687
e 572 922
e 574 662
e 575 986
e 575 710
e 576 725
e 576 971
e 577 778
e 577 946
e 577 673
e 579 971
e 579 675
e 580 908
e 580 872
e 581 964
e 581 617
e 581 970
e 581 988
e 584 596
e 585 667
e 585 798
e 585 835
e 586 970
e 586 820
e 586 912
e 587 667
e 587 690
e 587 946
e 587 855
e 589 749
e 589 800
e 589 713
e 590 789
e 590 642
e 590 741
e 591 738
e 591 592
e 596 740
e 596 600
e 596 602
e 596 813
e 597 725
e 598 785
e 598 710
e 599 696
e 599 763
e 599 667
e 600 979
e 601 741
e 602 705
e 602 688
e 603 790
e 603 823
e 604 787
e 606 964
e 607 694
e 608 997
e 608 653
e 608 628
e 608 623
e 609 854
e 610 922
e 610 772
e 611 654
e 611 903
e 612 695
e 612 803
e 614 640
e 614 673
e 614 948
e 617 894
e 617 734
e 617 619
e 617 713
e 618 720
e 618 810
e 619 820
e 619 923
e 619 787
e 621 661
e 622 694
e 622 738
e 623 951
e 626 942
e 628 977
e 628 755
e 628 634
e 628 657
e 628 825
e 629 784
e 629 940
e 630 758
e 632 772
e 632 970
e 632 654
e 632 653
e 632 736
e 633 986
e 634 738
e 634 785
e 635 693
e 635 966
e 635 889
e 641 802
e 641 751
e 642 910
e 643 672
e 643 729
e 644 792
e 646 662
e 648 758
e 648 711
e 648 987
e 649 781
e 649 887
e 650 680
e 650 945
e 653 936
e 654 812
e 654 810
e 654 938
e 654 989
e 654 983
e 654 686
e 656 971
e 657 979
e 657 740
e 658 810
e 658 687
e 658 697
e 658 905
e 658 956
e 660 834
e 660 797
e 660 803
e 660 693
e 661 686
e 665 731
e 665 903
e 665 854
e 665 727
e 667 913
e 669 863
e 669 849
e 669 856
e 670 687
e 671 801
e 672 872
e 673 849
e 673 680
e 673 860
e 674 887
e 674 867
e 676 887
e 676 841
e 677 895
e 677 843
e 677 745
e 680 845
e 680 925
e 687 818
e 690 714
e 693 819
e 694 969
e 694 793
e 695 834
e 695 750
e 697 946
e 697 841
e 697 738
e 697 888
e 698 915
e 698 785
e 699 987
e 700 847
e 700 901
e 700 713
e 701 934
e 701 966
e 701 712
e 702 711
e 702 741
e 703 776
e 703 909
e 704 893
e 704 823
e 705 751
e 707 963
e 709 851
e 709 937
e 710 938
e 710 898
e 711 970
e 711 958
e 716 743
e 716 907
e 716 972
e 717 805
e 720 828
e 720 991
e 721 846
e 721 939
e 721 964
e 722 777
e 724 878
e 724 991
e 725 965
e 726 728
e 726 957
e 728 802
e 728 975
e 729 931
e 729 998
e 730 920
e 730 743
e 734 841
e 734 836
e 736 778
e 738 886
e 738 937
e 740 756
e 742 920
e 742 896
e 744 932
e 744 858
e 746 907
e 746 887
e 747 976
e 749 971
e 750 814
e 750 867
e 750 877
e 751 907
e 753 868
e 755 830
e 755 869
e 755 825
e 756 969
e 756 904
e 759 793
e 759 925
e 759 929
e 763 997
e 766 770
e 766 959
e 766 850
e 768 963
e 769 954
e 770 990
e 770 973
e 772 884
e 774 987
e 774 994
e 775 972
e 776 987
e 776 871
e 778 815
e 779 859
e 779 857
e 781 841
e 784 970
e 784 897
e 787 808
e 789 871
e 790 888
e 792 992
e 792 889
e 792 832
e 792 865
e 792 954
e 793 861
e 794 966
e 794 995
e 794 831
e 797 850
e 797 830
e 798 848
e 799 882
e 799 894
e 801 842
e 803 815
e 804 836
e 807 808
e 807 884
e 809 991
e 810 939
e 812 977
e 813 901
e 814 956
e 814 868
e 814 988
e 815 816
e 816 907
e 818 866
e 823 882
e 824 965
e 824 877
e 826 936
e 828 988
e 828 943
e 831 916
e 831 940
e 835 938
e 835 843
e 838 981
e 849 939
e 849 867
e 850 920
e 854 869
e 855 925
e 855 877
e 856 926
e 861 915
e 863 989
e 864 965
e 865 990
e 865 918
e 874 924
e 878 997
e 878 951
e 884 994
e 887 958
e 890 933
e 890 939
e 899 901
e 904 958
e 908 936
e 910 951
e 913 996
e 916 945
e 928 987
e 928 963
e 928 970
e 932 969
e 963 970
e 972 980
e 979 994
e 981 998
